\ LP format - for model browsing. Use MPS format to capture full model detail.
Minimize
  y + 0 r2
Subject To
 c1: x1 - r1 <= 6
 c2: - y + r1 + y1 <= -3
 c3: x2 <= 7
 c4: - y + y2 <= -3
 c5: x3 - r3 <= 8
 c6: - y + r3 + y3 <= -1
 c7: x4 + 2 r4 <= 7
 c8: - y - 2 r4 + y4 <= -5
 c9: x5 - r5 <= 6
 c10: - y + r5 + y5 <= -3
 c11: x6 - r6 <= 6
 c12: - y + r6 + y6 <= -3
 c13: x1 - r1 - 22 p12 - 22 q12 - x2 <= -4
 c14: r1 + y1 - 22 p12 + 22 q12 - y2 <= 19
 c15: x1 - 22 p12 + 22 q12 - x2 >= -19
 c16: y1 - 22 p12 - 22 q12 - y2 >= -41
 c17: x1 - r1 - 22 p13 - 22 q13 - x3 <= -4
 c18: r1 + y1 - 22 p13 + 22 q13 - y3 <= 19
 c19: x1 - 22 p13 + 22 q13 - x3 - r3 >= -20
 c20: y1 - 22 p13 - 22 q13 - r3 - y3 >= -43
 c21: x1 - r1 - 22 p14 - 22 q14 - x4 <= -4
 c22: r1 + y1 - 22 p14 + 22 q14 - y4 <= 19
 c23: x1 - 22 p14 + 22 q14 - x4 + 2 r4 >= -19
 c24: y1 - 22 p14 - 22 q14 + 2 r4 - y4 >= -39
 c25: x1 - r1 - 22 p15 - 22 q15 - x5 <= -4
 c26: r1 + y1 - 22 p15 + 22 q15 - y5 <= 19
 c27: x1 - 22 p15 + 22 q15 - x5 - r5 >= -18
 c28: y1 - 22 p15 - 22 q15 - r5 - y5 >= -41
 c29: x1 - r1 - 22 p16 - 22 q16 - x6 <= -4
 c30: r1 + y1 - 22 p16 + 22 q16 - y6 <= 19
 c31: x1 - 22 p16 + 22 q16 - x6 - r6 >= -18
 c32: y1 - 22 p16 - 22 q16 - r6 - y6 >= -41
 c33: x2 - 22 p23 - 22 q23 - x3 <= -3
 c34: y2 - 22 p23 + 22 q23 - y3 <= 19
 c35: x2 - 22 p23 + 22 q23 - x3 - r3 >= -20
 c36: y2 - 22 p23 - 22 q23 - r3 - y3 >= -43
 c37: x2 - 22 p24 - 22 q24 - x4 <= -3
 c38: y2 - 22 p24 + 22 q24 - y4 <= 19
 c39: x2 - 22 p24 + 22 q24 - x4 + 2 r4 >= -19
 c40: y2 - 22 p24 - 22 q24 + 2 r4 - y4 >= -39
 c41: x2 - 22 p25 - 22 q25 - x5 <= -3
 c42: y2 - 22 p25 + 22 q25 - y5 <= 19
 c43: x2 - 22 p25 + 22 q25 - x5 - r5 >= -18
 c44: y2 - 22 p25 - 22 q25 - r5 - y5 >= -41
 c45: x2 - 22 p26 - 22 q26 - x6 <= -3
 c46: y2 - 22 p26 + 22 q26 - y6 <= 19
 c47: x2 - 22 p26 + 22 q26 - x6 - r6 >= -18
 c48: y2 - 22 p26 - 22 q26 - r6 - y6 >= -41
 c49: x3 - r3 - 22 p34 - 22 q34 - x4 <= -2
 c50: r3 + y3 - 22 p34 + 22 q34 - y4 <= 21
 c51: x3 - 22 p34 + 22 q34 - x4 + 2 r4 >= -19
 c52: y3 - 22 p34 - 22 q34 + 2 r4 - y4 >= -39
 c53: x3 - r3 - 22 p35 - 22 q35 - x5 <= -2
 c54: r3 + y3 - 22 p35 + 22 q35 - y5 <= 21
 c55: x3 - 22 p35 + 22 q35 - x5 - r5 >= -18
 c56: y3 - 22 p35 - 22 q35 - r5 - y5 >= -41
 c57: x3 - r3 - 22 p36 - 22 q36 - x6 <= -2
 c58: r3 + y3 - 22 p36 + 22 q36 - y6 <= 21
 c59: x3 - 22 p36 + 22 q36 - x6 - r6 >= -18
 c60: y3 - 22 p36 - 22 q36 - r6 - y6 >= -41
 c61: x4 + 2 r4 - 22 p45 - 22 q45 - x5 <= -3
 c62: - 2 r4 + y4 - 22 p45 + 22 q45 - y5 <= 17
 c63: x4 - 22 p45 + 22 q45 - x5 - r5 >= -18
 c64: y4 - 22 p45 - 22 q45 - r5 - y5 >= -41
 c65: x4 + 2 r4 - 22 p46 - 22 q46 - x6 <= -3
 c66: - 2 r4 + y4 - 22 p46 + 22 q46 - y6 <= 17
 c67: x4 - 22 p46 + 22 q46 - x6 - r6 >= -18
 c68: y4 - 22 p46 - 22 q46 - r6 - y6 >= -41
 c69: x5 - r5 - 22 p56 - 22 q56 - x6 <= -4
 c70: r5 + y5 - 22 p56 + 22 q56 - y6 <= 19
 c71: x5 - 22 p56 + 22 q56 - x6 - r6 >= -18
 c72: y5 - 22 p56 - 22 q56 - r6 - y6 >= -41
Bounds
 r1 <= 1
 p12 <= 1
 q12 <= 1
 p13 <= 1
 q13 <= 1
 p14 <= 1
 q14 <= 1
 p15 <= 1
 q15 <= 1
 p16 <= 1
 q16 <= 1
 r2 <= 1
 p23 <= 1
 q23 <= 1
 p24 <= 1
 q24 <= 1
 p25 <= 1
 q25 <= 1
 p26 <= 1
 q26 <= 1
 r3 <= 1
 p34 <= 1
 q34 <= 1
 p35 <= 1
 q35 <= 1
 p36 <= 1
 q36 <= 1
 r4 <= 1
 p45 <= 1
 q45 <= 1
 p46 <= 1
 q46 <= 1
 r5 <= 1
 p56 <= 1
 q56 <= 1
 r6 <= 1
Generals
 x1 r1 y1 p12 q12 p13 q13 p14 q14 p15 q15 p16 q16 x2 r2 y2 p23 q23 p24 q24
 p25 q25 p26 q26 x3 r3 y3 p34 q34 p35 q35 p36 q36 x4 r4 y4 p45 q45 p46 q46
 x5 r5 y5 p56 q56 x6 r6 y6
End
